
%FILE DATA:	Soccer Computational Problem for MiniZinc Models	%
%AUTHOR:	Jack Wall	%
%CONTACT:  	116397063@umail.ucc.ie			%
%LAST UPDATE:	03/02/2020, 18:19:35						%
%DESCRIPTION: 	77 games played with 33 games left				%


n=11; %number of teams

%Games to play
games=[|7,3|4,10|2,5|11,8|6,3|3,6|2,4|2,11|7,6|4,9|2,3|1,2|8,10|2,8|8,11|10,9|3,11|1,5|5,10|7,1|4,5|4,11|7,10|8,5|5,1|5,4|1,11|2,1|3,1|6,4|1,4|6,9|10,5|];

%Initial points
iPoints=[18,15,19,21,12,31,22,20,22,19,15];

%POSITION CONSTRAINTS
% [|teamID, operator, position|...]
% operators index:
%  1 for =  operator
%  2 for >  operator
%  3 for >= operator
%  4 for <  operator
%  5 for <= operator
positionConstraints=[|6,1,1|3,3,2|];